words_hard_train/6196.qaiger
aag 99 24 0 1 75
2
4
8
10
14
16
22
24
30
32
38
40
46
48
54
56
64
72
86
102
120
130
146
150
199
6 3 5
12 9 11
18 15 17
20 12 18
26 23 25
28 20 26
34 31 33
36 28 34
42 39 41
44 36 42
50 47 49
52 44 50
58 55 57
60 52 58
62 7 60
66 64 47
68 65 46
70 67 69
74 72 31
76 73 30
78 75 77
80 45 51
82 81 53
84 78 83
88 86 39
90 87 38
92 89 91
94 53 59
96 95 61
98 92 97
100 85 99
104 102 23
106 103 22
108 105 107
110 37 43
112 111 45
114 109 112
116 29 35
118 117 37
122 120 15
124 121 14
126 123 125
128 118 127
132 130 9
134 131 8
136 133 135
138 136 27
140 139 29
142 126 35
144 140 143
148 18 146
152 13 151
154 19 147
156 153 155
158 149 157
160 137 26
162 158 161
164 144 163
166 129 165
168 108 113
170 167 169
172 115 171
174 79 82
176 172 175
178 100 177
180 93 96
182 179 181
184 70 183
186 62 184
188 63 185
190 6 61
192 71 182
194 191 193
196 188 195
198 187 197
i0 1 x2[7]
i1 2 y1[7]
i2 1 x2[0]
i3 2 y1[0]
i4 1 x2[1]
i5 2 y1[1]
i6 1 x2[2]
i7 2 y1[2]
i8 1 x2[3]
i9 2 y1[3]
i10 1 x2[4]
i11 2 y1[4]
i12 1 x2[5]
i13 2 y1[5]
i14 1 x2[6]
i15 2 y1[6]
i16 2 y2[7]
i17 2 y2[5]
i18 2 y2[6]
i19 2 y2[4]
i20 2 y2[3]
i21 2 y2[2]
i22 2 y2[1]
i23 2 y2[0]
o0 bv[0]
c
simplified
  >
    or
      2 y1
      1 x2
    xor
      2 y2
      << 2
        1 x2
