words_hard_train/6196.qaiger.qdimacs
p cnf 99 226
a 1 4 7 11 15 19 23 27 0
e 2 3 5 6 8 9 10 12 13 14 16 17 18 20 21 22 24 25 26 28 29 30 31 32 33 34 35 36 37 38 39 40 41 42 43 44 45 46 47 48 49 50 51 52 53 54 55 56 57 58 59 60 61 62 63 64 65 66 67 68 69 70 71 72 73 74 75 76 77 78 79 80 81 82 83 84 85 86 87 88 89 90 91 92 93 94 95 96 97 98 99 0
1 2 3 0
-1 -3 0
-2 -3 0
4 5 6 0
-4 -6 0
-5 -6 0
7 8 9 0
-7 -9 0
-8 -9 0
-6 -9 10 0
6 -10 0
9 -10 0
11 12 13 0
-11 -13 0
-12 -13 0
-10 -13 14 0
10 -14 0
13 -14 0
15 16 17 0
-15 -17 0
-16 -17 0
-14 -17 18 0
14 -18 0
17 -18 0
19 20 21 0
-19 -21 0
-20 -21 0
-18 -21 22 0
18 -22 0
21 -22 0
23 24 25 0
-23 -25 0
-24 -25 0
-22 -25 26 0
22 -26 0
25 -26 0
27 28 29 0
-27 -29 0
-28 -29 0
-26 -29 30 0
26 -30 0
29 -30 0
3 -30 31 0
-3 -31 0
30 -31 0
-32 23 33 0
32 -33 0
-23 -33 0
32 -23 34 0
-32 -34 0
23 -34 0
33 34 35 0
-33 -35 0
-34 -35 0
-36 15 37 0
36 -37 0
-15 -37 0
36 -15 38 0
-36 -38 0
15 -38 0
37 38 39 0
-37 -39 0
-38 -39 0
22 25 40 0
-22 -40 0
-25 -40 0
40 26 41 0
-40 -41 0
-26 -41 0
-39 41 42 0
39 -42 0
-41 -42 0
-43 19 44 0
43 -44 0
-19 -44 0
43 -19 45 0
-43 -45 0
19 -45 0
44 45 46 0
-44 -46 0
-45 -46 0
26 29 47 0
-26 -47 0
-29 -47 0
47 30 48 0
-47 -48 0
-30 -48 0
-46 48 49 0
46 -49 0
-48 -49 0
42 49 50 0
-42 -50 0
-49 -50 0
-51 11 52 0
51 -52 0
-11 -52 0
51 -11 53 0
-51 -53 0
11 -53 0
52 53 54 0
-52 -54 0
-53 -54 0
18 21 55 0
-18 -55 0
-21 -55 0
55 22 56 0
-55 -56 0
-22 -56 0
54 -56 57 0
-54 -57 0
56 -57 0
14 17 58 0
-14 -58 0
-17 -58 0
58 18 59 0
-58 -59 0
-18 -59 0
-60 7 61 0
60 -61 0
-7 -61 0
60 -7 62 0
-60 -62 0
7 -62 0
61 62 63 0
-61 -63 0
-62 -63 0
-59 63 64 0
59 -64 0
-63 -64 0
-65 4 66 0
65 -66 0
-4 -66 0
65 -4 67 0
-65 -67 0
4 -67 0
66 67 68 0
-66 -68 0
-67 -68 0
-68 13 69 0
68 -69 0
-13 -69 0
69 14 70 0
-69 -70 0
-14 -70 0
-63 17 71 0
63 -71 0
-17 -71 0
-70 71 72 0
70 -72 0
-71 -72 0
-9 -73 74 0
9 -74 0
73 -74 0
6 75 76 0
-6 -76 0
-75 -76 0
9 73 77 0
-9 -77 0
-73 -77 0
76 77 78 0
-76 -78 0
-77 -78 0
74 78 79 0
-74 -79 0
-78 -79 0
68 -13 80 0
-68 -80 0
13 -80 0
-79 80 81 0
79 -81 0
-80 -81 0
-72 81 82 0
72 -82 0
-81 -82 0
64 82 83 0
-64 -83 0
-82 -83 0
-54 56 84 0
54 -84 0
-56 -84 0
83 84 85 0
-83 -85 0
-84 -85 0
57 85 86 0
-57 -86 0
-85 -86 0
39 -41 87 0
-39 -87 0
41 -87 0
-86 87 88 0
86 -88 0
-87 -88 0
-50 88 89 0
50 -89 0
-88 -89 0
46 -48 90 0
-46 -90 0
48 -90 0
89 90 91 0
-89 -91 0
-90 -91 0
-35 91 92 0
35 -92 0
-91 -92 0
-31 -92 93 0
31 -93 0
92 -93 0
31 92 94 0
-31 -94 0
-92 -94 0
-3 30 95 0
3 -95 0
-30 -95 0
35 -91 96 0
-35 -96 0
91 -96 0
95 96 97 0
-95 -97 0
-96 -97 0
-94 97 98 0
94 -98 0
-97 -98 0
93 98 99 0
-93 -99 0
-98 -99 0
-99 0
